
Gurobi 12.0.1 (linux64, gurobi_cl) logging started Tue Feb 11 19:03:46 2025

Set parameter WLSAccessID
Set parameter WLSSecret
Set parameter LicenseID to value 2620036
Set parameter TimeLimit to value 9000
Set parameter LogFile to value "gurobi.log"
Using license file /opt/gurobi1201/gurobi.lic
Academic license 2620036 - for non-commercial use only - registered to ja___@concordia.ca

Gurobi Optimizer version 12.0.1 build v12.0.1rc0 (linux64 - "Pop!_OS 22.04 LTS")
Copyright (c) 2025, Gurobi Optimization, LLC

Read LP format model from file /tmp/78fb331842e14e75abcc219dc7421c3c-pulp.lp
Reading time = 0.02 seconds
OBJ: 11599 rows, 6477 columns, 53898 nonzeros

Using Gurobi shared library /opt/gurobi1201/linux64/lib/libgurobi.so.12.0.1

CPU model: AMD Ryzen 7 PRO 7840U w/ Radeon 780M Graphics, instruction set [SSE2|AVX|AVX2|AVX512]
Thread count: 8 physical cores, 16 logical processors, using up to 16 threads

Non-default parameters:
TimeLimit  9000

Academic license 2620036 - for non-commercial use only - registered to ja___@concordia.ca
Optimize a model with 11599 rows, 6477 columns and 53898 nonzeros
Model fingerprint: 0x03d78090
Variable types: 3241 continuous, 3236 integer (3236 binary)
Coefficient statistics:
  Matrix range     [4e-07, 2e+06]
  Objective range  [1e+00, 1e+00]
  Bounds range     [1e+00, 1e+00]
  RHS range        [1e+00, 2e+06]
Warning: Model contains large matrix coefficient range
         Consider reformulating model or setting NumericFocus parameter
         to avoid numerical issues.
Found heuristic solution: objective -0.0000000
Presolve removed 4518 rows and 3251 columns
Presolve time: 0.18s
Presolved: 7081 rows, 3226 columns, 44349 nonzeros
Variable types: 1 continuous, 3225 integer (3222 binary)
Found heuristic solution: objective 1196781.0000

Root relaxation: objective 5.370061e+07, 5986 iterations, 0.26 seconds (0.42 work units)

    Nodes    |    Current Node    |     Objective Bounds      |     Work
 Expl Unexpl |  Obj  Depth IntInf | Incumbent    BestBd   Gap | It/Node Time

     0     0 5.3701e+07    0 1255 1196781.00 5.3701e+07  4387%     -    0s
H    0     0                    4.600141e+07 5.3701e+07  16.7%     -    0s
H    0     0                    4.951697e+07 5.3701e+07  8.45%     -    0s
H    0     0                    5.009636e+07 5.3701e+07  7.19%     -    0s
H    0     0                    5.022736e+07 5.3701e+07  6.92%     -    0s
H    0     0                    5.071376e+07 5.3701e+07  5.89%     -    0s
H    0     0                    5.108776e+07 5.3701e+07  5.11%     -    0s
H    0     0                    5.123735e+07 5.3701e+07  4.81%     -    0s
H    0     0                    5.159265e+07 5.3699e+07  4.08%     -    0s
     0     0 5.3669e+07    0 1513 5.1593e+07 5.3669e+07  4.03%     -    1s
H    0     0                    5.174224e+07 5.3669e+07  3.72%     -    1s
H    0     0                    5.174234e+07 5.3669e+07  3.72%     -    1s
H    0     0                    5.176094e+07 5.3669e+07  3.69%     -    1s
H    0     0                    5.176094e+07 5.3669e+07  3.69%     -    1s
H    0     0                    5.228452e+07 5.3669e+07  2.65%     -    1s
H    0     0                    5.232192e+07 5.3669e+07  2.58%     -    1s
H    0     0                    5.237802e+07 5.3668e+07  2.46%     -    1s
     0     0 5.3668e+07    0 1604 5.2378e+07 5.3668e+07  2.46%     -    1s
     0     0 5.3668e+07    0 1686 5.2378e+07 5.3668e+07  2.46%     -    1s
     0     0 5.3648e+07    0 1664 5.2378e+07 5.3648e+07  2.43%     -    1s
     0     0 5.3645e+07    0 1919 5.2378e+07 5.3645e+07  2.42%     -    1s
     0     0 5.3642e+07    0 1828 5.2378e+07 5.3642e+07  2.41%     -    1s
     0     0 5.3642e+07    0 1919 5.2378e+07 5.3642e+07  2.41%     -    1s
     0     0 5.3579e+07    0 1874 5.2378e+07 5.3579e+07  2.29%     -    2s
     0     0 5.3578e+07    0 1734 5.2378e+07 5.3578e+07  2.29%     -    2s
     0     0 5.3577e+07    0 1815 5.2378e+07 5.3577e+07  2.29%     -    2s
H    0     0                    5.243413e+07 5.3577e+07  2.18%     -    2s
H    0     0                    5.243413e+07 5.3577e+07  2.18%     -    2s
H    0     0                    5.256502e+07 5.3577e+07  1.93%     -    2s
     0     0 5.3577e+07    0 1817 5.2565e+07 5.3577e+07  1.93%     -    2s
     0     0 5.3572e+07    0 1959 5.2565e+07 5.3572e+07  1.92%     -    2s
     0     0 5.3572e+07    0 1366 5.2565e+07 5.3572e+07  1.92%     -    2s
     0     0 5.3572e+07    0 1738 5.2565e+07 5.3572e+07  1.91%     -    2s
     0     0 5.3506e+07    0 1785 5.2565e+07 5.3506e+07  1.79%     -    3s
     0     0 5.3505e+07    0 1885 5.2565e+07 5.3505e+07  1.79%     -    3s
     0     0 5.3504e+07    0 1757 5.2565e+07 5.3504e+07  1.79%     -    3s
     0     0 5.3504e+07    0 1757 5.2565e+07 5.3504e+07  1.79%     -    3s
     0     0 5.3455e+07    0 1663 5.2565e+07 5.3455e+07  1.69%     -    4s
     0     0 5.3453e+07    0 1894 5.2565e+07 5.3453e+07  1.69%     -    4s
     0     0 5.3453e+07    0 1858 5.2565e+07 5.3453e+07  1.69%     -    4s
     0     0 5.3453e+07    0 1847 5.2565e+07 5.3453e+07  1.69%     -    4s
     0     0 5.3440e+07    0 2032 5.2565e+07 5.3440e+07  1.66%     -    5s
     0     0 5.3440e+07    0 1825 5.2565e+07 5.3440e+07  1.66%     -    5s
H    0     0                    5.277662e+07 5.3440e+07  1.26%     -    5s
H    0     0                    5.280812e+07 5.3440e+07  1.20%     -    5s
H    0     0                    5.280812e+07 5.3440e+07  1.20%     -    5s
H    0     0                    5.286422e+07 5.3440e+07  1.09%     -    5s
     0     0 5.3429e+07    0 1732 5.2864e+07 5.3429e+07  1.07%     -    5s
     0     0 5.3429e+07    0 1842 5.2864e+07 5.3429e+07  1.07%     -    5s
H    0     0                    5.305122e+07 5.3426e+07  0.71%     -    7s
H    0     0                    5.318212e+07 5.3426e+07  0.46%     -    7s
     0     0 5.3426e+07    0 1838 5.3182e+07 5.3426e+07  0.46%     -    7s
H    0     0                    5.320082e+07 5.3426e+07  0.42%     -    7s
     0     0 5.3425e+07    0 1862 5.3201e+07 5.3425e+07  0.42%     -    7s
     0     0 5.3425e+07    0 1838 5.3201e+07 5.3425e+07  0.42%     -    7s
     0     0 5.3425e+07    0 1837 5.3201e+07 5.3425e+07  0.42%     -    7s
     0     0 5.3425e+07    0 1837 5.3201e+07 5.3425e+07  0.42%     -    7s
     0     0 5.3425e+07    0 1928 5.3201e+07 5.3425e+07  0.42%     -    7s
     0     0 5.3425e+07    0 1815 5.3201e+07 5.3425e+07  0.42%     -    7s
     0     0 5.3425e+07    0 1815 5.3201e+07 5.3425e+07  0.42%     -    7s
     0     2 5.3425e+07    0 1815 5.3201e+07 5.3425e+07  0.42%     -    7s
H  118   124                    5.321952e+07 5.3417e+07  0.37%   609   10s
   393   223     cutoff   10      5.3220e+07 5.3391e+07  0.32%   690   15s

Cutting planes:
  Cover: 597
  Clique: 784
  MIR: 4
  GUB cover: 10
  Zero half: 17
  Relax-and-lift: 30

Explored 431 nodes (336548 simplex iterations) in 15.86 seconds (34.56 work units)
Thread count was 16 (of 16 available processors)

Solution count 10: 5.32195e+07 5.32008e+07 5.31821e+07 ... 5.24341e+07

Solve interrupted
Best objective 5.321951600000e+07, best bound 5.339121735367e+07, gap 0.3226%

Wrote result file '/tmp/78fb331842e14e75abcc219dc7421c3c-pulp.sol'


Gurobi 12.0.1 (linux64, gurobi_cl) logging started Tue Feb 11 19:04:31 2025

Set parameter WLSAccessID
Set parameter WLSSecret
Set parameter LicenseID to value 2620036
Set parameter TimeLimit to value 9000
Set parameter LogFile to value "gurobi.log"
Using license file /opt/gurobi1201/gurobi.lic
Academic license 2620036 - for non-commercial use only - registered to ja___@concordia.ca

Gurobi Optimizer version 12.0.1 build v12.0.1rc0 (linux64 - "Pop!_OS 22.04 LTS")
Copyright (c) 2025, Gurobi Optimization, LLC

Read LP format model from file /tmp/6c164058df1242518c946337a56f98ee-pulp.lp
Reading time = 0.02 seconds
OBJ: 11599 rows, 6477 columns, 53898 nonzeros

Using Gurobi shared library /opt/gurobi1201/linux64/lib/libgurobi.so.12.0.1

CPU model: AMD Ryzen 7 PRO 7840U w/ Radeon 780M Graphics, instruction set [SSE2|AVX|AVX2|AVX512]
Thread count: 8 physical cores, 16 logical processors, using up to 16 threads

Non-default parameters:
TimeLimit  9000

Academic license 2620036 - for non-commercial use only - registered to ja___@concordia.ca
Optimize a model with 11599 rows, 6477 columns and 53898 nonzeros
Model fingerprint: 0x03d78090
Variable types: 3241 continuous, 3236 integer (3236 binary)
Coefficient statistics:
  Matrix range     [4e-07, 2e+06]
  Objective range  [1e+00, 1e+00]
  Bounds range     [1e+00, 1e+00]
  RHS range        [1e+00, 2e+06]
Warning: Model contains large matrix coefficient range
         Consider reformulating model or setting NumericFocus parameter
         to avoid numerical issues.
Found heuristic solution: objective -0.0000000
Presolve removed 4518 rows and 3251 columns
Presolve time: 0.17s
Presolved: 7081 rows, 3226 columns, 44349 nonzeros
Variable types: 1 continuous, 3225 integer (3222 binary)
Found heuristic solution: objective 1196781.0000

Root relaxation: objective 5.370061e+07, 5986 iterations, 0.27 seconds (0.42 work units)

    Nodes    |    Current Node    |     Objective Bounds      |     Work
 Expl Unexpl |  Obj  Depth IntInf | Incumbent    BestBd   Gap | It/Node Time

     0     0 5.3701e+07    0 1255 1196781.00 5.3701e+07  4387%     -    0s
H    0     0                    4.600141e+07 5.3701e+07  16.7%     -    0s
H    0     0                    4.951697e+07 5.3701e+07  8.45%     -    0s
H    0     0                    5.009636e+07 5.3701e+07  7.19%     -    0s
H    0     0                    5.022736e+07 5.3701e+07  6.92%     -    0s
H    0     0                    5.071376e+07 5.3701e+07  5.89%     -    0s
H    0     0                    5.108776e+07 5.3701e+07  5.11%     -    0s
H    0     0                    5.123735e+07 5.3701e+07  4.81%     -    0s
H    0     0                    5.159265e+07 5.3699e+07  4.08%     -    0s
     0     0 5.3669e+07    0 1513 5.1593e+07 5.3669e+07  4.03%     -    1s
H    0     0                    5.174224e+07 5.3669e+07  3.72%     -    1s
H    0     0                    5.174234e+07 5.3669e+07  3.72%     -    1s
H    0     0                    5.176094e+07 5.3669e+07  3.69%     -    1s
H    0     0                    5.176094e+07 5.3669e+07  3.69%     -    1s
H    0     0                    5.228452e+07 5.3669e+07  2.65%     -    1s
H    0     0                    5.232192e+07 5.3669e+07  2.58%     -    1s
H    0     0                    5.237802e+07 5.3668e+07  2.46%     -    1s
     0     0 5.3668e+07    0 1604 5.2378e+07 5.3668e+07  2.46%     -    1s
     0     0 5.3668e+07    0 1686 5.2378e+07 5.3668e+07  2.46%     -    1s
     0     0 5.3648e+07    0 1664 5.2378e+07 5.3648e+07  2.43%     -    1s
     0     0 5.3645e+07    0 1919 5.2378e+07 5.3645e+07  2.42%     -    1s
     0     0 5.3642e+07    0 1828 5.2378e+07 5.3642e+07  2.41%     -    1s
     0     0 5.3642e+07    0 1919 5.2378e+07 5.3642e+07  2.41%     -    1s
     0     0 5.3579e+07    0 1874 5.2378e+07 5.3579e+07  2.29%     -    2s
     0     0 5.3578e+07    0 1734 5.2378e+07 5.3578e+07  2.29%     -    2s
     0     0 5.3577e+07    0 1815 5.2378e+07 5.3577e+07  2.29%     -    2s
H    0     0                    5.243413e+07 5.3577e+07  2.18%     -    2s
H    0     0                    5.243413e+07 5.3577e+07  2.18%     -    2s
H    0     0                    5.256502e+07 5.3577e+07  1.93%     -    2s
     0     0 5.3577e+07    0 1817 5.2565e+07 5.3577e+07  1.93%     -    2s
     0     0 5.3572e+07    0 1959 5.2565e+07 5.3572e+07  1.92%     -    2s
     0     0 5.3572e+07    0 1366 5.2565e+07 5.3572e+07  1.92%     -    2s
     0     0 5.3572e+07    0 1738 5.2565e+07 5.3572e+07  1.91%     -    2s
     0     0 5.3506e+07    0 1785 5.2565e+07 5.3506e+07  1.79%     -    3s
     0     0 5.3505e+07    0 1885 5.2565e+07 5.3505e+07  1.79%     -    3s
     0     0 5.3504e+07    0 1757 5.2565e+07 5.3504e+07  1.79%     -    3s
     0     0 5.3504e+07    0 1757 5.2565e+07 5.3504e+07  1.79%     -    3s
     0     0 5.3455e+07    0 1663 5.2565e+07 5.3455e+07  1.69%     -    4s
     0     0 5.3453e+07    0 1894 5.2565e+07 5.3453e+07  1.69%     -    4s
     0     0 5.3453e+07    0 1858 5.2565e+07 5.3453e+07  1.69%     -    4s
     0     0 5.3453e+07    0 1847 5.2565e+07 5.3453e+07  1.69%     -    4s
     0     0 5.3440e+07    0 2032 5.2565e+07 5.3440e+07  1.66%     -    5s
     0     0 5.3440e+07    0 1825 5.2565e+07 5.3440e+07  1.66%     -    5s
H    0     0                    5.277662e+07 5.3440e+07  1.26%     -    5s
H    0     0                    5.280812e+07 5.3440e+07  1.20%     -    5s
H    0     0                    5.280812e+07 5.3440e+07  1.20%     -    5s
H    0     0                    5.286422e+07 5.3440e+07  1.09%     -    5s
     0     0 5.3429e+07    0 1732 5.2864e+07 5.3429e+07  1.07%     -    5s
     0     0 5.3429e+07    0 1842 5.2864e+07 5.3429e+07  1.07%     -    5s
H    0     0                    5.305122e+07 5.3426e+07  0.71%     -    6s
H    0     0                    5.318212e+07 5.3426e+07  0.46%     -    6s
     0     0 5.3426e+07    0 1838 5.3182e+07 5.3426e+07  0.46%     -    6s
H    0     0                    5.320082e+07 5.3426e+07  0.42%     -    6s
     0     0 5.3425e+07    0 1862 5.3201e+07 5.3425e+07  0.42%     -    6s
     0     0 5.3425e+07    0 1838 5.3201e+07 5.3425e+07  0.42%     -    6s
     0     0 5.3425e+07    0 1837 5.3201e+07 5.3425e+07  0.42%     -    7s
     0     0 5.3425e+07    0 1837 5.3201e+07 5.3425e+07  0.42%     -    7s
     0     0 5.3425e+07    0 1928 5.3201e+07 5.3425e+07  0.42%     -    7s
     0     0 5.3425e+07    0 1815 5.3201e+07 5.3425e+07  0.42%     -    7s
     0     0 5.3425e+07    0 1815 5.3201e+07 5.3425e+07  0.42%     -    7s
     0     2 5.3425e+07    0 1815 5.3201e+07 5.3425e+07  0.42%     -    7s
H  118   124                    5.321952e+07 5.3417e+07  0.37%   609   10s

Cutting planes:
  Cover: 597
  Clique: 784
  MIR: 4
  GUB cover: 10
  Zero half: 17
  Relax-and-lift: 30

Explored 388 nodes (287531 simplex iterations) in 14.47 seconds (32.11 work units)
Thread count was 16 (of 16 available processors)

Solution count 10: 5.32195e+07 5.32008e+07 5.31821e+07 ... 5.24341e+07

Solve interrupted
Best objective 5.321951600000e+07, best bound 5.339121735367e+07, gap 0.3226%

Wrote result file '/tmp/6c164058df1242518c946337a56f98ee-pulp.sol'

